param n := 120;
param c := 150;
param : V : p w :=
   0	 110	 100
   1	  32	  22
   2	  35	  25
   3	  61	  51
   4	 105	  95
   5	  68	  58
   6	 107	  97
   7	  40	  30
   8	  89	  79
   9	  33	  23
  10	  63	  53
  11	  90	  80
  12	  30	  20
  13	  75	  65
  14	  74	  64
  15	  31	  21
  16	  36	  26
  17	 110	 100
  18	  91	  81
  19	 108	  98
  20	  80	  70
  21	  95	  85
  22	 102	  92
  23	 107	  97
  24	  96	  86
  25	  81	  71
  26	 101	  91
  27	  39	  29
  28	  73	  63
  29	  44	  34
  30	  77	  67
  31	  33	  23
  32	  43	  33
  33	  99	  89
  34	 104	  94
  35	  57	  47
  36	 110	 100
  37	  47	  37
  38	  50	  40
  39	  68	  58
  40	  83	  73
  41	  49	  39
  42	  59	  49
  43	  89	  79
  44	  64	  54
  45	  67	  57
  46	 108	  98
  47	  79	  69
  48	  77	  67
  49	  59	  49
  50	  48	  38
  51	  44	  34
  52	 106	  96
  53	  37	  27
  54	 102	  92
  55	  92	  82
  56	  79	  69
  57	  55	  45
  58	  79	  69
  59	  30	  20
  60	  85	  75
  61	 107	  97
  62	  61	  51
  63	  80	  70
  64	  39	  29
  65	 101	  91
  66	 108	  98
  67	  87	  77
  68	  58	  48
  69	  55	  45
  70	  53	  43
  71	  71	  61
  72	  46	  36
  73	  92	  82
  74	  99	  89
  75	 104	  94
  76	  36	  26
  77	  45	  35
  78	  68	  58
  79	  68	  58
  80	  67	  57
  81	  56	  46
  82	  54	  44
  83	 101	  91
  84	  59	  49
  85	  62	  52
  86	  75	  65
  87	  52	  42
  88	  43	  33
  89	  70	  60
  90	  47	  37
  91	  67	  57
  92	 101	  91
  93	  62	  52
  94	 105	  95
  95	  94	  84
  96	  82	  72
  97	  85	  75
  98	  99	  89
  99	  91	  81
 100	  77	  67
 101	  84	  74
 102	  97	  87
 103	  70	  60
 104	  42	  32
 105	  86	  76
 106	  95	  85
 107	  69	  59
 108	  72	  62
 109	  49	  39
 110	  74	  64
 111	  62	  52
 112	  98	  88
 113	  55	  45
 114	  39	  29
 115	  98	  88
 116	  95	  85
 117	  64	  54
 118	  50	  40
 119	  67	  57
;

set E :=
   0	   1
   0	   5
   0	   7
   0	   8
   0	   9
   0	  11
   0	  12
   0	  13
   0	  14
   0	  15
   0	  18
   0	  20
   0	  22
   0	  23
   0	  24
   0	  28
   0	  29
   0	  35
   0	  37
   0	  40
   0	  42
   0	  43
   0	  44
   0	  48
   0	  49
   0	  51
   0	  52
   0	  53
   0	  54
   0	  57
   0	  58
   0	  59
   0	  60
   0	  62
   0	  63
   0	  64
   0	  66
   0	  67
   0	  69
   0	  70
   0	  76
   0	  80
   0	  83
   0	  86
   0	  87
   0	  91
   0	  93
   0	  94
   0	  95
   0	 103
   0	 105
   0	 106
   0	 108
   0	 111
   0	 113
   0	 114
   0	 115
   0	 117
   1	   2
   1	   3
   1	   4
   1	   5
   1	   6
   1	   7
   1	   8
   1	   9
   1	  10
   1	  11
   1	  12
   1	  14
   1	  15
   1	  16
   1	  19
   1	  21
   1	  23
   1	  27
   1	  30
   1	  33
   1	  35
   1	  36
   1	  38
   1	  41
   1	  43
   1	  45
   1	  47
   1	  49
   1	  51
   1	  52
   1	  54
   1	  57
   1	  59
   1	  61
   1	  66
   1	  67
   1	  69
   1	  73
   1	  74
   1	  75
   1	  76
   1	  78
   1	  80
   1	  84
   1	  85
   1	  87
   1	  88
   1	  89
   1	  95
   1	  96
   1	 102
   1	 103
   1	 108
   1	 114
   1	 115
   1	 117
   1	 118
   1	 119
   2	   7
   2	   8
   2	   9
   2	  10
   2	  11
   2	  12
   2	  15
   2	  16
   2	  19
   2	  20
   2	  21
   2	  28
   2	  30
   2	  32
   2	  35
   2	  37
   2	  39
   2	  40
   2	  41
   2	  42
   2	  43
   2	  44
   2	  47
   2	  48
   2	  49
   2	  50
   2	  51
   2	  52
   2	  54
   2	  57
   2	  59
   2	  61
   2	  63
   2	  64
   2	  66
   2	  68
   2	  69
   2	  70
   2	  71
   2	  72
   2	  73
   2	  74
   2	  77
   2	  78
   2	  80
   2	  81
   2	  84
   2	  85
   2	  86
   2	  89
   2	  93
   2	  94
   2	  95
   2	 100
   2	 101
   2	 104
   2	 107
   2	 109
   2	 110
   2	 112
   2	 113
   2	 116
   2	 118
   3	   7
   3	   8
   3	   9
   3	  10
   3	  11
   3	  12
   3	  14
   3	  15
   3	  17
   3	  21
   3	  22
   3	  23
   3	  25
   3	  26
   3	  29
   3	  30
   3	  37
   3	  40
   3	  41
   3	  44
   3	  46
   3	  49
   3	  50
   3	  51
   3	  55
   3	  56
   3	  57
   3	  58
   3	  59
   3	  63
   3	  64
   3	  65
   3	  66
   3	  67
   3	  69
   3	  71
   3	  72
   3	  75
   3	  76
   3	  77
   3	  78
   3	  80
   3	  82
   3	  83
   3	  84
   3	  86
   3	  88
   3	  89
   3	  90
   3	  91
   3	  98
   3	 101
   3	 105
   3	 106
   3	 107
   3	 108
   3	 109
   3	 113
   3	 116
   3	 117
   3	 119
   4	   5
   4	   9
   4	  10
   4	  12
   4	  14
   4	  15
   4	  20
   4	  21
   4	  23
   4	  24
   4	  25
   4	  28
   4	  30
   4	  38
   4	  39
   4	  42
   4	  43
   4	  46
   4	  48
   4	  50
   4	  51
   4	  52
   4	  53
   4	  54
   4	  55
   4	  56
   4	  57
   4	  58
   4	  59
   4	  60
   4	  62
   4	  64
   4	  66
   4	  67
   4	  70
   4	  71
   4	  74
   4	  75
   4	  80
   4	  81
   4	  82
   4	  86
   4	  89
   4	  92
   4	  94
   4	  95
   4	  97
   4	 100
   4	 101
   4	 102
   4	 104
   4	 106
   4	 111
   4	 113
   4	 114
   4	 117
   4	 118
   5	   8
   5	  10
   5	  11
   5	  12
   5	  13
   5	  14
   5	  15
   5	  16
   5	  19
   5	  21
   5	  24
   5	  25
   5	  26
   5	  27
   5	  32
   5	  33
   5	  37
   5	  40
   5	  42
   5	  43
   5	  44
   5	  45
   5	  46
   5	  47
   5	  48
   5	  49
   5	  51
   5	  54
   5	  58
   5	  60
   5	  62
   5	  64
   5	  65
   5	  66
   5	  68
   5	  70
   5	  71
   5	  74
   5	  75
   5	  76
   5	  77
   5	  81
   5	  85
   5	  86
   5	  87
   5	  90
   5	  94
   5	  95
   5	  98
   5	  99
   5	 101
   5	 102
   5	 103
   5	 107
   5	 111
   5	 113
   5	 114
   5	 115
   6	  10
   6	  11
   6	  12
   6	  13
   6	  14
   6	  17
   6	  18
   6	  23
   6	  24
   6	  25
   6	  27
   6	  28
   6	  30
   6	  31
   6	  34
   6	  36
   6	  37
   6	  41
   6	  42
   6	  44
   6	  47
   6	  48
   6	  50
   6	  51
   6	  54
   6	  58
   6	  61
   6	  63
   6	  68
   6	  70
   6	  72
   6	  74
   6	  76
   6	  77
   6	  78
   6	  79
   6	  83
   6	  84
   6	  86
   6	  88
   6	  95
   6	 100
   6	 102
   6	 103
   6	 104
   6	 107
   6	 115
   6	 117
   6	 119
   7	  10
   7	  13
   7	  14
   7	  16
   7	  17
   7	  21
   7	  22
   7	  25
   7	  26
   7	  30
   7	  32
   7	  33
   7	  35
   7	  37
   7	  38
   7	  43
   7	  45
   7	  46
   7	  47
   7	  48
   7	  52
   7	  56
   7	  57
   7	  59
   7	  63
   7	  64
   7	  65
   7	  66
   7	  67
   7	  68
   7	  70
   7	  75
   7	  76
   7	  78
   7	  80
   7	  81
   7	  82
   7	  84
   7	  86
   7	  88
   7	  89
   7	  91
   7	  92
   7	  94
   7	  95
   7	  96
   7	 100
   7	 102
   7	 106
   7	 108
   7	 109
   7	 110
   7	 111
   7	 112
   7	 114
   7	 116
   7	 117
   7	 118
   7	 119
   8	   9
   8	  10
   8	  15
   8	  18
   8	  19
   8	  20
   8	  24
   8	  25
   8	  26
   8	  28
   8	  29
   8	  31
   8	  33
   8	  34
   8	  36
   8	  37
   8	  44
   8	  46
   8	  50
   8	  54
   8	  56
   8	  57
   8	  58
   8	  60
   8	  61
   8	  62
   8	  65
   8	  67
   8	  68
   8	  71
   8	  73
   8	  74
   8	  75
   8	  78
   8	  81
   8	  82
   8	  85
   8	  86
   8	  88
   8	  91
   8	  92
   8	  93
   8	  96
   8	  97
   8	  98
   8	  99
   8	 100
   8	 101
   8	 103
   8	 105
   8	 106
   8	 107
   8	 108
   8	 110
   8	 115
   8	 116
   9	  10
   9	  11
   9	  13
   9	  15
   9	  17
   9	  18
   9	  20
   9	  26
   9	  27
   9	  28
   9	  32
   9	  33
   9	  34
   9	  38
   9	  39
   9	  40
   9	  41
   9	  43
   9	  44
   9	  45
   9	  46
   9	  47
   9	  48
   9	  54
   9	  55
   9	  56
   9	  58
   9	  59
   9	  61
   9	  63
   9	  65
   9	  67
   9	  68
   9	  69
   9	  72
   9	  73
   9	  74
   9	  77
   9	  79
   9	  80
   9	  84
   9	  89
   9	  90
   9	  92
   9	  93
   9	  95
   9	  97
   9	  98
   9	  99
   9	 101
   9	 108
   9	 110
   9	 112
   9	 113
   9	 115
   9	 116
   9	 117
   9	 119
  10	  11
  10	  14
  10	  16
  10	  18
  10	  20
  10	  21
  10	  24
  10	  25
  10	  28
  10	  30
  10	  31
  10	  32
  10	  38
  10	  44
  10	  46
  10	  47
  10	  48
  10	  50
  10	  51
  10	  52
  10	  53
  10	  54
  10	  55
  10	  61
  10	  62
  10	  65
  10	  68
  10	  72
  10	  73
  10	  74
  10	  76
  10	  78
  10	  80
  10	  83
  10	  84
  10	  86
  10	  89
  10	  90
  10	  91
  10	  92
  10	  95
  10	  97
  10	  98
  10	  99
  10	 101
  10	 103
  10	 104
  10	 109
  10	 111
  10	 116
  10	 117
  10	 118
  10	 119
  11	  15
  11	  19
  11	  20
  11	  21
  11	  22
  11	  25
  11	  26
  11	  28
  11	  29
  11	  30
  11	  31
  11	  32
  11	  34
  11	  37
  11	  39
  11	  40
  11	  42
  11	  44
  11	  46
  11	  49
  11	  52
  11	  55
  11	  57
  11	  59
  11	  63
  11	  65
  11	  66
  11	  68
  11	  71
  11	  72
  11	  73
  11	  74
  11	  77
  11	  78
  11	  83
  11	  84
  11	  86
  11	  87
  11	  88
  11	  89
  11	  90
  11	  93
  11	  97
  11	  98
  11	  99
  11	 100
  11	 103
  11	 106
  11	 107
  11	 108
  11	 109
  11	 110
  11	 112
  11	 116
  11	 119
  12	  14
  12	  15
  12	  16
  12	  17
  12	  18
  12	  19
  12	  20
  12	  23
  12	  24
  12	  25
  12	  27
  12	  28
  12	  29
  12	  30
  12	  31
  12	  32
  12	  34
  12	  38
  12	  39
  12	  40
  12	  42
  12	  49
  12	  50
  12	  53
  12	  55
  12	  56
  12	  57
  12	  58
  12	  60
  12	  63
  12	  64
  12	  66
  12	  67
  12	  69
  12	  70
  12	  72
  12	  77
  12	  78
  12	  80
  12	  81
  12	  85
  12	  87
  12	  90
  12	  93
  12	  97
  12	 103
  12	 104
  12	 105
  12	 107
  12	 110
  12	 111
  12	 112
  12	 113
  12	 114
  12	 118
  13	  15
  13	  16
  13	  17
  13	  23
  13	  26
  13	  27
  13	  28
  13	  29
  13	  30
  13	  31
  13	  34
  13	  38
  13	  40
  13	  41
  13	  42
  13	  46
  13	  47
  13	  49
  13	  51
  13	  53
  13	  59
  13	  62
  13	  63
  13	  65
  13	  70
  13	  71
  13	  75
  13	  76
  13	  79
  13	  82
  13	  85
  13	  89
  13	  92
  13	  94
  13	  96
  13	  98
  13	  99
  13	 102
  13	 103
  13	 106
  13	 108
  13	 110
  13	 112
  13	 113
  13	 119
  14	  18
  14	  22
  14	  31
  14	  32
  14	  33
  14	  34
  14	  35
  14	  37
  14	  39
  14	  43
  14	  44
  14	  45
  14	  46
  14	  49
  14	  50
  14	  51
  14	  52
  14	  54
  14	  55
  14	  59
  14	  60
  14	  61
  14	  62
  14	  64
  14	  71
  14	  74
  14	  75
  14	  78
  14	  79
  14	  81
  14	  84
  14	  88
  14	  90
  14	  93
  14	  96
  14	  98
  14	  99
  14	 101
  14	 103
  14	 108
  14	 110
  14	 118
  14	 119
  15	  16
  15	  17
  15	  20
  15	  21
  15	  22
  15	  27
  15	  28
  15	  30
  15	  31
  15	  33
  15	  38
  15	  39
  15	  40
  15	  41
  15	  42
  15	  46
  15	  48
  15	  50
  15	  52
  15	  53
  15	  54
  15	  56
  15	  57
  15	  58
  15	  59
  15	  60
  15	  61
  15	  62
  15	  66
  15	  67
  15	  68
  15	  70
  15	  71
  15	  72
  15	  74
  15	  77
  15	  78
  15	  79
  15	  80
  15	  81
  15	  83
  15	  85
  15	  89
  15	  92
  15	  93
  15	 100
  15	 102
  15	 103
  15	 104
  15	 106
  15	 112
  15	 113
  15	 116
  15	 118
  16	  17
  16	  18
  16	  23
  16	  24
  16	  25
  16	  28
  16	  29
  16	  30
  16	  31
  16	  32
  16	  33
  16	  34
  16	  37
  16	  38
  16	  39
  16	  40
  16	  43
  16	  47
  16	  50
  16	  51
  16	  53
  16	  55
  16	  58
  16	  59
  16	  62
  16	  63
  16	  64
  16	  66
  16	  68
  16	  70
  16	  71
  16	  73
  16	  75
  16	  76
  16	  79
  16	  83
  16	  86
  16	  87
  16	  88
  16	  89
  16	  93
  16	  94
  16	  95
  16	  96
  16	 102
  16	 106
  16	 112
  16	 113
  16	 116
  16	 117
  17	  20
  17	  21
  17	  22
  17	  23
  17	  27
  17	  29
  17	  34
  17	  35
  17	  37
  17	  38
  17	  39
  17	  43
  17	  44
  17	  45
  17	  46
  17	  48
  17	  49
  17	  50
  17	  51
  17	  52
  17	  53
  17	  55
  17	  56
  17	  60
  17	  61
  17	  62
  17	  64
  17	  65
  17	  66
  17	  67
  17	  68
  17	  69
  17	  73
  17	  74
  17	  75
  17	  77
  17	  78
  17	  79
  17	  80
  17	  83
  17	  85
  17	  86
  17	  87
  17	  88
  17	  92
  17	  94
  17	  96
  17	  97
  17	  98
  17	  99
  17	 100
  17	 103
  17	 104
  17	 105
  17	 109
  17	 110
  17	 111
  17	 112
  17	 113
  17	 114
  17	 115
  17	 118
  17	 119
  18	  19
  18	  20
  18	  21
  18	  22
  18	  25
  18	  27
  18	  30
  18	  31
  18	  33
  18	  34
  18	  36
  18	  38
  18	  39
  18	  41
  18	  45
  18	  46
  18	  48
  18	  49
  18	  50
  18	  51
  18	  52
  18	  54
  18	  55
  18	  56
  18	  58
  18	  59
  18	  62
  18	  65
  18	  69
  18	  70
  18	  71
  18	  74
  18	  80
  18	  83
  18	  85
  18	  87
  18	  88
  18	  91
  18	  93
  18	  96
  18	  97
  18	  99
  18	 103
  18	 104
  18	 105
  18	 106
  18	 108
  18	 109
  18	 112
  18	 113
  18	 114
  18	 115
  18	 117
  18	 118
  18	 119
  19	  20
  19	  22
  19	  23
  19	  25
  19	  27
  19	  28
  19	  30
  19	  32
  19	  38
  19	  43
  19	  45
  19	  46
  19	  47
  19	  51
  19	  53
  19	  54
  19	  56
  19	  57
  19	  58
  19	  59
  19	  62
  19	  64
  19	  65
  19	  68
  19	  69
  19	  70
  19	  72
  19	  73
  19	  77
  19	  79
  19	  83
  19	  85
  19	  89
  19	  90
  19	  92
  19	  93
  19	 100
  19	 107
  19	 108
  19	 110
  19	 113
  19	 114
  19	 115
  19	 116
  20	  21
  20	  23
  20	  24
  20	  25
  20	  26
  20	  28
  20	  29
  20	  31
  20	  32
  20	  33
  20	  35
  20	  37
  20	  38
  20	  44
  20	  45
  20	  47
  20	  48
  20	  51
  20	  52
  20	  53
  20	  54
  20	  62
  20	  66
  20	  68
  20	  69
  20	  72
  20	  74
  20	  75
  20	  77
  20	  79
  20	  80
  20	  81
  20	  82
  20	  84
  20	  85
  20	  86
  20	  91
  20	  96
  20	  97
  20	  98
  20	 101
  20	 102
  20	 108
  20	 110
  20	 111
  20	 113
  20	 115
  20	 116
  20	 117
  20	 118
  21	  22
  21	  23
  21	  24
  21	  26
  21	  29
  21	  31
  21	  32
  21	  35
  21	  37
  21	  40
  21	  41
  21	  43
  21	  46
  21	  48
  21	  50
  21	  51
  21	  55
  21	  58
  21	  60
  21	  61
  21	  63
  21	  64
  21	  65
  21	  66
  21	  67
  21	  69
  21	  73
  21	  74
  21	  75
  21	  76
  21	  77
  21	  78
  21	  79
  21	  80
  21	  82
  21	  83
  21	  84
  21	  85
  21	  87
  21	  88
  21	  89
  21	  90
  21	  92
  21	  93
  21	  95
  21	  97
  21	  98
  21	  99
  21	 100
  21	 101
  21	 102
  21	 103
  21	 106
  21	 107
  21	 109
  21	 113
  21	 115
  21	 117
  21	 119
  22	  24
  22	  28
  22	  32
  22	  33
  22	  36
  22	  37
  22	  39
  22	  40
  22	  41
  22	  45
  22	  46
  22	  49
  22	  51
  22	  54
  22	  55
  22	  56
  22	  58
  22	  59
  22	  61
  22	  64
  22	  67
  22	  68
  22	  70
  22	  71
  22	  72
  22	  73
  22	  74
  22	  75
  22	  77
  22	  78
  22	  79
  22	  81
  22	  82
  22	  83
  22	  84
  22	  85
  22	  89
  22	  91
  22	  92
  22	  93
  22	  97
  22	  98
  22	 100
  22	 102
  22	 105
  22	 106
  22	 107
  22	 110
  22	 115
  23	  24
  23	  27
  23	  31
  23	  34
  23	  36
  23	  38
  23	  47
  23	  51
  23	  53
  23	  59
  23	  60
  23	  62
  23	  65
  23	  67
  23	  68
  23	  72
  23	  74
  23	  75
  23	  76
  23	  77
  23	  78
  23	  82
  23	  84
  23	  85
  23	  86
  23	  88
  23	  90
  23	  94
  23	  95
  23	  97
  23	  98
  23	  99
  23	 101
  23	 102
  23	 103
  23	 104
  23	 105
  23	 107
  23	 110
  23	 115
  23	 118
  24	  25
  24	  27
  24	  30
  24	  33
  24	  34
  24	  37
  24	  38
  24	  40
  24	  43
  24	  44
  24	  45
  24	  47
  24	  49
  24	  51
  24	  52
  24	  53
  24	  54
  24	  55
  24	  58
  24	  59
  24	  60
  24	  61
  24	  62
  24	  70
  24	  73
  24	  74
  24	  75
  24	  78
  24	  79
  24	  80
  24	  83
  24	  88
  24	  89
  24	  91
  24	  92
  24	  93
  24	  94
  24	  95
  24	  96
  24	 103
  24	 106
  24	 110
  24	 112
  24	 113
  24	 119
  25	  26
  25	  28
  25	  29
  25	  30
  25	  31
  25	  34
  25	  36
  25	  37
  25	  39
  25	  40
  25	  41
  25	  42
  25	  43
  25	  44
  25	  45
  25	  46
  25	  49
  25	  50
  25	  52
  25	  53
  25	  54
  25	  55
  25	  57
  25	  58
  25	  59
  25	  61
  25	  65
  25	  67
  25	  70
  25	  72
  25	  73
  25	  75
  25	  76
  25	  84
  25	  86
  25	  87
  25	  88
  25	  89
  25	  90
  25	  95
  25	  96
  25	  98
  25	  99
  25	 100
  25	 101
  25	 104
  25	 105
  25	 106
  25	 108
  25	 110
  25	 112
  25	 114
  25	 115
  25	 116
  25	 119
  26	  27
  26	  28
  26	  29
  26	  30
  26	  33
  26	  34
  26	  36
  26	  37
  26	  39
  26	  40
  26	  42
  26	  44
  26	  46
  26	  48
  26	  53
  26	  54
  26	  55
  26	  58
  26	  59
  26	  60
  26	  62
  26	  63
  26	  65
  26	  68
  26	  71
  26	  72
  26	  73
  26	  77
  26	  78
  26	  81
  26	  84
  26	  85
  26	  88
  26	  89
  26	  91
  26	  93
  26	  94
  26	  96
  26	  99
  26	 103
  26	 105
  26	 107
  26	 108
  26	 111
  26	 114
  26	 116
  26	 118
  26	 119
  27	  28
  27	  29
  27	  30
  27	  33
  27	  36
  27	  37
  27	  38
  27	  41
  27	  44
  27	  45
  27	  46
  27	  48
  27	  49
  27	  51
  27	  52
  27	  53
  27	  54
  27	  55
  27	  56
  27	  57
  27	  60
  27	  61
  27	  63
  27	  64
  27	  66
  27	  68
  27	  69
  27	  71
  27	  72
  27	  76
  27	  78
  27	  79
  27	  88
  27	  89
  27	  90
  27	  91
  27	  96
  27	  99
  27	 100
  27	 102
  27	 104
  27	 105
  27	 107
  27	 109
  27	 112
  27	 113
  27	 117
  28	  38
  28	  39
  28	  40
  28	  41
  28	  42
  28	  43
  28	  44
  28	  45
  28	  46
  28	  47
  28	  48
  28	  49
  28	  52
  28	  53
  28	  55
  28	  56
  28	  57
  28	  60
  28	  62
  28	  66
  28	  67
  28	  70
  28	  72
  28	  76
  28	  77
  28	  79
  28	  80
  28	  81
  28	  83
  28	  86
  28	  91
  28	  92
  28	  94
  28	  95
  28	  96
  28	  97
  28	  98
  28	  99
  28	 100
  28	 101
  28	 102
  28	 104
  28	 106
  28	 108
  28	 109
  28	 111
  28	 114
  28	 115
  28	 116
  28	 117
  28	 119
  29	  30
  29	  33
  29	  34
  29	  35
  29	  36
  29	  37
  29	  39
  29	  40
  29	  41
  29	  44
  29	  47
  29	  53
  29	  55
  29	  58
  29	  59
  29	  60
  29	  61
  29	  65
  29	  67
  29	  69
  29	  71
  29	  73
  29	  75
  29	  76
  29	  78
  29	  80
  29	  82
  29	  83
  29	  84
  29	  88
  29	  89
  29	  91
  29	  92
  29	  96
  29	  97
  29	  99
  29	 102
  29	 105
  29	 106
  29	 110
  29	 111
  29	 113
  29	 114
  29	 115
  29	 116
  30	  32
  30	  35
  30	  37
  30	  41
  30	  45
  30	  46
  30	  47
  30	  49
  30	  50
  30	  51
  30	  53
  30	  54
  30	  56
  30	  57
  30	  65
  30	  66
  30	  67
  30	  68
  30	  69
  30	  71
  30	  73
  30	  74
  30	  79
  30	  80
  30	  81
  30	  83
  30	  87
  30	  88
  30	  89
  30	  90
  30	  93
  30	  95
  30	  96
  30	  98
  30	 101
  30	 102
  30	 103
  30	 106
  30	 107
  30	 111
  30	 112
  30	 115
  30	 116
  30	 117
  31	  32
  31	  33
  31	  35
  31	  39
  31	  40
  31	  41
  31	  42
  31	  43
  31	  48
  31	  54
  31	  55
  31	  56
  31	  61
  31	  63
  31	  64
  31	  65
  31	  67
  31	  68
  31	  69
  31	  71
  31	  74
  31	  83
  31	  85
  31	  86
  31	  87
  31	  88
  31	  90
  31	  92
  31	  93
  31	  94
  31	  96
  31	  98
  31	 100
  31	 102
  31	 104
  31	 106
  31	 110
  31	 111
  31	 116
  31	 117
  31	 118
  31	 119
  32	  36
  32	  40
  32	  41
  32	  44
  32	  47
  32	  48
  32	  53
  32	  56
  32	  57
  32	  60
  32	  61
  32	  64
  32	  65
  32	  66
  32	  67
  32	  69
  32	  70
  32	  73
  32	  74
  32	  76
  32	  77
  32	  78
  32	  81
  32	  84
  32	  85
  32	  88
  32	  92
  32	  93
  32	  94
  32	  95
  32	  96
  32	 101
  32	 103
  32	 105
  32	 106
  32	 108
  32	 109
  32	 111
  32	 112
  32	 113
  32	 116
  32	 117
  32	 118
  32	 119
  33	  34
  33	  35
  33	  37
  33	  40
  33	  45
  33	  46
  33	  47
  33	  50
  33	  52
  33	  53
  33	  54
  33	  59
  33	  60
  33	  61
  33	  62
  33	  64
  33	  66
  33	  68
  33	  69
  33	  70
  33	  74
  33	  78
  33	  80
  33	  81
  33	  86
  33	  87
  33	  88
  33	  89
  33	  90
  33	  92
  33	  93
  33	  94
  33	  96
  33	  97
  33	  99
  33	 100
  33	 101
  33	 104
  33	 105
  33	 107
  33	 108
  33	 109
  33	 112
  33	 115
  33	 116
  33	 117
  33	 118
  33	 119
  34	  36
  34	  37
  34	  38
  34	  39
  34	  40
  34	  41
  34	  42
  34	  43
  34	  44
  34	  46
  34	  47
  34	  48
  34	  50
  34	  51
  34	  52
  34	  56
  34	  57
  34	  59
  34	  60
  34	  63
  34	  66
  34	  68
  34	  70
  34	  71
  34	  72
  34	  73
  34	  77
  34	  79
  34	  82
  34	  83
  34	  87
  34	  92
  34	  94
  34	  96
  34	  97
  34	  98
  34	 100
  34	 101
  34	 102
  34	 103
  34	 104
  34	 105
  34	 113
  34	 117
  34	 119
  35	  37
  35	  39
  35	  42
  35	  44
  35	  49
  35	  53
  35	  54
  35	  55
  35	  56
  35	  57
  35	  58
  35	  61
  35	  62
  35	  65
  35	  68
  35	  69
  35	  71
  35	  75
  35	  77
  35	  78
  35	  80
  35	  81
  35	  82
  35	  83
  35	  84
  35	  85
  35	  86
  35	  87
  35	  88
  35	  89
  35	  90
  35	  94
  35	  95
  35	  97
  35	  98
  35	  99
  35	 100
  35	 102
  35	 105
  35	 110
  35	 111
  35	 113
  35	 114
  35	 115
  35	 116
  35	 118
  35	 119
  36	  38
  36	  39
  36	  42
  36	  43
  36	  44
  36	  45
  36	  47
  36	  48
  36	  51
  36	  55
  36	  58
  36	  60
  36	  61
  36	  62
  36	  63
  36	  66
  36	  70
  36	  71
  36	  73
  36	  75
  36	  76
  36	  77
  36	  78
  36	  82
  36	  85
  36	  90
  36	  91
  36	  94
  36	  95
  36	  96
  36	  97
  36	 100
  36	 102
  36	 103
  36	 104
  36	 106
  36	 107
  36	 108
  36	 109
  36	 110
  36	 111
  36	 113
  36	 115
  36	 118
  36	 119
  37	  38
  37	  40
  37	  41
  37	  42
  37	  43
  37	  44
  37	  46
  37	  50
  37	  51
  37	  53
  37	  57
  37	  58
  37	  59
  37	  60
  37	  62
  37	  63
  37	  64
  37	  65
  37	  68
  37	  69
  37	  71
  37	  74
  37	  77
  37	  78
  37	  79
  37	  81
  37	  83
  37	  84
  37	  87
  37	  90
  37	  93
  37	  96
  37	  97
  37	  98
  37	  99
  37	 102
  37	 103
  37	 105
  37	 106
  37	 107
  37	 108
  37	 109
  37	 110
  37	 112
  37	 115
  37	 117
  37	 119
  38	  39
  38	  40
  38	  43
  38	  44
  38	  46
  38	  47
  38	  50
  38	  51
  38	  52
  38	  55
  38	  66
  38	  72
  38	  74
  38	  76
  38	  77
  38	  78
  38	  79
  38	  84
  38	  86
  38	  87
  38	  92
  38	  93
  38	  94
  38	  96
  38	  98
  38	 100
  38	 107
  38	 110
  38	 111
  38	 113
  38	 114
  38	 116
  38	 117
  39	  41
  39	  42
  39	  43
  39	  44
  39	  45
  39	  46
  39	  47
  39	  49
  39	  52
  39	  56
  39	  58
  39	  59
  39	  60
  39	  61
  39	  64
  39	  65
  39	  67
  39	  68
  39	  69
  39	  70
  39	  73
  39	  74
  39	  75
  39	  78
  39	  79
  39	  84
  39	  85
  39	  86
  39	  87
  39	  90
  39	  98
  39	  99
  39	 102
  39	 108
  39	 110
  39	 114
  39	 115
  39	 118
  40	  43
  40	  47
  40	  48
  40	  49
  40	  51
  40	  52
  40	  53
  40	  54
  40	  58
  40	  60
  40	  61
  40	  62
  40	  64
  40	  65
  40	  66
  40	  67
  40	  68
  40	  70
  40	  71
  40	  73
  40	  75
  40	  79
  40	  81
  40	  84
  40	  85
  40	  86
  40	  88
  40	  90
  40	  91
  40	  96
  40	 100
  40	 101
  40	 104
  40	 106
  40	 109
  40	 111
  40	 115
  40	 118
  40	 119
  41	  42
  41	  43
  41	  44
  41	  46
  41	  47
  41	  48
  41	  49
  41	  51
  41	  54
  41	  56
  41	  57
  41	  58
  41	  59
  41	  60
  41	  61
  41	  63
  41	  64
  41	  69
  41	  70
  41	  71
  41	  72
  41	  75
  41	  76
  41	  77
  41	  78
  41	  79
  41	  80
  41	  82
  41	  83
  41	  84
  41	  87
  41	  88
  41	  89
  41	  93
  41	  97
  41	  98
  41	 100
  41	 103
  41	 105
  41	 106
  41	 111
  41	 112
  41	 118
  41	 119
  42	  43
  42	  47
  42	  49
  42	  50
  42	  53
  42	  54
  42	  56
  42	  57
  42	  59
  42	  60
  42	  61
  42	  62
  42	  63
  42	  65
  42	  67
  42	  70
  42	  74
  42	  75
  42	  76
  42	  77
  42	  78
  42	  80
  42	  81
  42	  82
  42	  83
  42	  85
  42	  89
  42	  96
  42	  98
  42	 105
  42	 110
  42	 112
  42	 115
  42	 116
  42	 117
  42	 118
  43	  47
  43	  49
  43	  50
  43	  55
  43	  56
  43	  59
  43	  60
  43	  62
  43	  63
  43	  64
  43	  65
  43	  67
  43	  69
  43	  72
  43	  73
  43	  75
  43	  76
  43	  77
  43	  79
  43	  81
  43	  87
  43	  89
  43	  91
  43	  93
  43	  97
  43	  98
  43	 101
  43	 102
  43	 110
  43	 112
  43	 114
  43	 116
  43	 117
  43	 118
  43	 119
  44	  45
  44	  46
  44	  48
  44	  49
  44	  51
  44	  52
  44	  53
  44	  55
  44	  56
  44	  60
  44	  63
  44	  64
  44	  65
  44	  66
  44	  70
  44	  71
  44	  78
  44	  80
  44	  84
  44	  85
  44	  86
  44	  88
  44	  90
  44	  91
  44	  94
  44	  95
  44	  96
  44	  98
  44	 103
  44	 105
  44	 106
  44	 108
  44	 109
  44	 110
  44	 114
  44	 115
  44	 116
  44	 118
  44	 119
  45	  46
  45	  48
  45	  51
  45	  58
  45	  59
  45	  60
  45	  62
  45	  68
  45	  72
  45	  75
  45	  78
  45	  81
  45	  82
  45	  84
  45	  86
  45	  87
  45	  88
  45	  89
  45	  91
  45	  95
  45	  97
  45	 101
  45	 108
  45	 109
  45	 111
  45	 112
  45	 115
  45	 117
  46	  47
  46	  48
  46	  51
  46	  52
  46	  53
  46	  54
  46	  55
  46	  56
  46	  57
  46	  58
  46	  61
  46	  63
  46	  65
  46	  69
  46	  71
  46	  72
  46	  74
  46	  75
  46	  76
  46	  81
  46	  82
  46	  85
  46	  87
  46	  89
  46	  91
  46	  92
  46	  93
  46	  95
  46	  97
  46	  98
  46	 102
  46	 104
  46	 109
  46	 110
  46	 111
  46	 113
  46	 115
  46	 118
  47	  51
  47	  57
  47	  58
  47	  59
  47	  61
  47	  62
  47	  63
  47	  67
  47	  68
  47	  69
  47	  71
  47	  75
  47	  79
  47	  81
  47	  84
  47	  85
  47	  86
  47	  87
  47	  88
  47	  89
  47	  90
  47	  93
  47	  94
  47	 101
  47	 102
  47	 103
  47	 105
  47	 106
  47	 108
  47	 109
  47	 112
  47	 114
  47	 116
  47	 117
  47	 118
  48	  53
  48	  54
  48	  55
  48	  57
  48	  59
  48	  60
  48	  61
  48	  62
  48	  64
  48	  65
  48	  66
  48	  67
  48	  68
  48	  69
  48	  70
  48	  71
  48	  74
  48	  77
  48	  78
  48	  79
  48	  87
  48	  88
  48	  89
  48	  90
  48	  92
  48	  93
  48	  95
  48	  97
  48	  99
  48	 100
  48	 101
  48	 103
  48	 104
  48	 105
  48	 108
  48	 111
  48	 112
  48	 113
  48	 114
  48	 115
  48	 116
  48	 117
  48	 118
  48	 119
  49	  50
  49	  59
  49	  60
  49	  62
  49	  63
  49	  64
  49	  67
  49	  70
  49	  74
  49	  75
  49	  76
  49	  79
  49	  83
  49	  84
  49	  85
  49	  88
  49	  89
  49	  95
  49	  96
  49	  97
  49	  99
  49	 100
  49	 102
  49	 104
  49	 105
  49	 107
  49	 111
  49	 113
  49	 114
  49	 116
  49	 117
  49	 118
  50	  53
  50	  55
  50	  57
  50	  59
  50	  60
  50	  61
  50	  62
  50	  63
  50	  66
  50	  71
  50	  74
  50	  76
  50	  77
  50	  80
  50	  83
  50	  84
  50	  85
  50	  86
  50	  88
  50	  92
  50	  93
  50	  96
  50	  97
  50	  99
  50	 100
  50	 102
  50	 107
  50	 109
  50	 110
  50	 111
  50	 112
  50	 113
  50	 116
  50	 117
  50	 118
  50	 119
  51	  52
  51	  53
  51	  54
  51	  58
  51	  61
  51	  62
  51	  63
  51	  64
  51	  65
  51	  66
  51	  69
  51	  70
  51	  74
  51	  78
  51	  82
  51	  85
  51	  86
  51	  88
  51	  95
  51	  97
  51	  98
  51	 100
  51	 101
  51	 102
  51	 105
  51	 107
  51	 112
  51	 113
  51	 114
  51	 119
  52	  55
  52	  59
  52	  63
  52	  65
  52	  66
  52	  68
  52	  69
  52	  71
  52	  72
  52	  74
  52	  75
  52	  76
  52	  78
  52	  79
  52	  81
  52	  85
  52	  86
  52	  87
  52	  91
  52	  95
  52	  96
  52	 101
  52	 105
  52	 108
  52	 110
  52	 112
  52	 113
  52	 115
  52	 117
  52	 118
  52	 119
  53	  54
  53	  62
  53	  63
  53	  64
  53	  65
  53	  68
  53	  69
  53	  70
  53	  71
  53	  75
  53	  78
  53	  79
  53	  80
  53	  84
  53	  86
  53	  87
  53	  89
  53	  90
  53	  95
  53	  99
  53	 100
  53	 101
  53	 102
  53	 105
  53	 108
  53	 111
  53	 114
  53	 119
  54	  56
  54	  57
  54	  59
  54	  60
  54	  61
  54	  63
  54	  64
  54	  65
  54	  66
  54	  67
  54	  68
  54	  69
  54	  70
  54	  77
  54	  80
  54	  82
  54	  83
  54	  85
  54	  87
  54	  91
  54	  93
  54	  94
  54	  95
  54	  96
  54	 102
  54	 107
  54	 108
  54	 110
  54	 111
  54	 112
  54	 113
  54	 116
  54	 117
  54	 118
  54	 119
  55	  57
  55	  61
  55	  63
  55	  64
  55	  66
  55	  67
  55	  71
  55	  73
  55	  77
  55	  78
  55	  79
  55	  80
  55	  89
  55	  95
  55	  96
  55	  97
  55	  98
  55	 101
  55	 103
  55	 105
  55	 106
  55	 111
  55	 114
  55	 116
  56	  57
  56	  58
  56	  59
  56	  61
  56	  62
  56	  64
  56	  66
  56	  67
  56	  68
  56	  69
  56	  74
  56	  76
  56	  80
  56	  82
  56	  84
  56	  86
  56	  87
  56	  89
  56	  90
  56	  91
  56	  93
  56	  99
  56	 100
  56	 101
  56	 102
  56	 104
  56	 105
  56	 106
  56	 108
  56	 109
  56	 110
  56	 111
  56	 112
  56	 114
  56	 118
  56	 119
  57	  58
  57	  59
  57	  60
  57	  67
  57	  73
  57	  75
  57	  82
  57	  83
  57	  84
  57	  85
  57	  87
  57	  88
  57	  89
  57	  91
  57	  92
  57	  93
  57	  94
  57	  95
  57	  97
  57	  98
  57	 100
  57	 102
  57	 106
  57	 107
  57	 108
  57	 112
  57	 114
  57	 115
  57	 116
  57	 119
  58	  60
  58	  61
  58	  64
  58	  71
  58	  72
  58	  75
  58	  76
  58	  77
  58	  83
  58	  84
  58	  86
  58	  89
  58	  96
  58	  99
  58	 100
  58	 101
  58	 102
  58	 103
  58	 104
  58	 106
  58	 107
  58	 108
  58	 109
  58	 115
  58	 117
  58	 119
  59	  61
  59	  65
  59	  67
  59	  69
  59	  71
  59	  72
  59	  75
  59	  80
  59	  81
  59	  82
  59	  85
  59	  86
  59	  87
  59	  91
  59	  92
  59	  94
  59	  95
  59	  96
  59	  97
  59	 100
  59	 102
  59	 105
  59	 106
  59	 107
  59	 110
  59	 113
  59	 114
  59	 115
  59	 116
  59	 118
  59	 119
  60	  61
  60	  62
  60	  67
  60	  69
  60	  71
  60	  73
  60	  74
  60	  79
  60	  80
  60	  83
  60	  84
  60	  86
  60	  91
  60	  94
  60	  95
  60	  97
  60	 100
  60	 106
  60	 108
  60	 110
  60	 114
  60	 115
  61	  65
  61	  66
  61	  67
  61	  71
  61	  74
  61	  76
  61	  78
  61	  79
  61	  80
  61	  81
  61	  85
  61	  86
  61	  89
  61	  90
  61	  91
  61	  92
  61	  96
  61	 100
  61	 101
  61	 102
  61	 103
  61	 108
  61	 109
  61	 113
  61	 116
  61	 118
  62	  63
  62	  67
  62	  68
  62	  72
  62	  75
  62	  76
  62	  77
  62	  78
  62	  80
  62	  82
  62	  90
  62	  93
  62	  95
  62	  96
  62	  99
  62	 100
  62	 105
  62	 107
  62	 108
  62	 110
  62	 111
  62	 112
  62	 113
  62	 116
  62	 118
  62	 119
  63	  64
  63	  65
  63	  69
  63	  70
  63	  74
  63	  75
  63	  79
  63	  83
  63	  84
  63	  85
  63	  86
  63	  87
  63	  88
  63	  89
  63	  91
  63	  92
  63	  95
  63	  96
  63	  97
  63	 100
  63	 102
  63	 104
  63	 105
  63	 106
  63	 107
  63	 110
  63	 113
  63	 118
  63	 119
  64	  66
  64	  68
  64	  70
  64	  71
  64	  72
  64	  73
  64	  74
  64	  75
  64	  76
  64	  78
  64	  79
  64	  80
  64	  83
  64	  84
  64	  94
  64	  95
  64	  97
  64	 100
  64	 104
  64	 105
  64	 108
  64	 109
  64	 112
  64	 114
  64	 116
  64	 117
  64	 118
  65	  67
  65	  69
  65	  70
  65	  71
  65	  72
  65	  73
  65	  74
  65	  75
  65	  76
  65	  78
  65	  79
  65	  81
  65	  84
  65	  85
  65	  86
  65	  88
  65	  89
  65	  90
  65	  97
  65	  99
  65	 100
  65	 101
  65	 102
  65	 104
  65	 105
  65	 107
  65	 108
  65	 111
  65	 114
  65	 118
  66	  68
  66	  69
  66	  70
  66	  71
  66	  72
  66	  76
  66	  79
  66	  83
  66	  84
  66	  86
  66	  87
  66	  88
  66	  89
  66	  90
  66	  91
  66	  94
  66	  96
  66	 100
  66	 102
  66	 104
  66	 105
  66	 108
  66	 114
  66	 119
  67	  68
  67	  69
  67	  70
  67	  72
  67	  75
  67	  76
  67	  78
  67	  79
  67	  80
  67	  82
  67	  83
  67	  84
  67	  85
  67	  86
  67	  87
  67	  88
  67	  89
  67	  90
  67	  92
  67	  95
  67	  96
  67	  99
  67	 100
  67	 101
  67	 102
  67	 103
  67	 105
  67	 106
  67	 108
  67	 109
  67	 110
  67	 111
  67	 113
  67	 115
  67	 117
  67	 118
  67	 119
  68	  69
  68	  71
  68	  72
  68	  74
  68	  76
  68	  77
  68	  78
  68	  79
  68	  81
  68	  83
  68	  85
  68	  87
  68	  88
  68	  89
  68	  92
  68	  96
  68	  97
  68	 101
  68	 103
  68	 110
  68	 111
  68	 114
  68	 116
  68	 119
  69	  71
  69	  72
  69	  77
  69	  79
  69	  80
  69	  81
  69	  83
  69	  85
  69	  87
  69	  89
  69	  90
  69	  95
  69	  96
  69	  99
  69	 100
  69	 101
  69	 103
  69	 110
  69	 111
  69	 112
  69	 113
  69	 116
  70	  72
  70	  74
  70	  76
  70	  79
  70	  83
  70	  87
  70	  88
  70	  90
  70	  91
  70	  94
  70	  95
  70	  96
  70	  98
  70	 100
  70	 103
  70	 106
  70	 107
  70	 110
  70	 111
  70	 115
  70	 116
  70	 118
  71	  73
  71	  75
  71	  78
  71	  79
  71	  81
  71	  83
  71	  85
  71	  87
  71	  91
  71	  93
  71	  94
  71	  95
  71	 100
  71	 101
  71	 103
  71	 106
  71	 108
  71	 109
  71	 110
  71	 111
  71	 112
  71	 114
  71	 115
  71	 116
  71	 117
  71	 118
  71	 119
  72	  74
  72	  77
  72	  78
  72	  80
  72	  82
  72	  84
  72	  85
  72	  86
  72	  88
  72	  91
  72	  92
  72	  94
  72	  96
  72	  98
  72	 100
  72	 101
  72	 103
  72	 104
  72	 106
  72	 107
  72	 110
  72	 112
  72	 113
  72	 116
  72	 118
  73	  74
  73	  75
  73	  80
  73	  82
  73	  83
  73	  87
  73	  88
  73	  89
  73	  90
  73	  91
  73	  92
  73	  93
  73	  98
  73	  99
  73	 100
  73	 101
  73	 103
  73	 104
  73	 105
  73	 106
  73	 108
  73	 109
  73	 110
  73	 111
  73	 112
  73	 113
  73	 116
  73	 117
  73	 118
  73	 119
  74	  75
  74	  77
  74	  79
  74	  83
  74	  85
  74	  86
  74	  91
  74	  92
  74	  95
  74	  96
  74	  97
  74	  98
  74	 100
  74	 101
  74	 104
  74	 105
  74	 106
  74	 107
  74	 108
  74	 109
  74	 112
  74	 115
  74	 118
  75	  85
  75	  86
  75	  87
  75	  88
  75	  91
  75	  94
  75	  95
  75	  98
  75	  99
  75	 102
  75	 103
  75	 104
  75	 108
  75	 111
  75	 114
  75	 115
  75	 118
  75	 119
  76	  83
  76	  91
  76	  95
  76	  96
  76	  99
  76	 102
  76	 103
  76	 105
  76	 106
  76	 108
  76	 112
  76	 116
  76	 117
  77	  79
  77	  80
  77	  86
  77	  87
  77	  89
  77	  90
  77	  91
  77	  92
  77	  93
  77	  94
  77	  95
  77	 100
  77	 102
  77	 104
  77	 105
  77	 106
  77	 110
  77	 112
  77	 114
  77	 115
  77	 116
  77	 118
  77	 119
  78	  80
  78	  82
  78	  83
  78	  84
  78	  86
  78	  89
  78	  92
  78	  93
  78	  94
  78	  97
  78	 101
  78	 102
  78	 105
  78	 106
  78	 109
  78	 119
  79	  80
  79	  81
  79	  82
  79	  83
  79	  84
  79	  85
  79	  86
  79	  88
  79	  89
  79	  90
  79	  92
  79	  93
  79	  94
  79	  96
  79	  97
  79	  98
  79	 101
  79	 102
  79	 105
  79	 108
  79	 110
  79	 111
  79	 113
  79	 114
  79	 115
  79	 117
  80	  82
  80	  84
  80	  85
  80	  86
  80	  88
  80	  89
  80	  93
  80	  94
  80	  96
  80	  97
  80	  98
  80	  99
  80	 102
  80	 104
  80	 109
  80	 111
  80	 113
  80	 116
  80	 118
  81	  82
  81	  84
  81	  86
  81	  87
  81	  92
  81	  93
  81	  95
  81	  98
  81	 100
  81	 101
  81	 103
  81	 105
  81	 107
  81	 111
  81	 112
  81	 113
  81	 115
  81	 117
  81	 118
  82	  83
  82	  84
  82	  85
  82	  86
  82	  88
  82	  91
  82	  92
  82	  93
  82	  95
  82	  96
  82	 100
  82	 105
  82	 106
  82	 110
  82	 112
  82	 115
  82	 116
  82	 118
  82	 119
  83	  84
  83	  88
  83	  90
  83	  95
  83	  97
  83	  99
  83	 100
  83	 101
  83	 104
  83	 106
  83	 108
  83	 109
  83	 112
  83	 113
  83	 114
  83	 115
  83	 116
  83	 118
  83	 119
  84	  85
  84	  89
  84	  93
  84	  94
  84	  95
  84	  98
  84	  99
  84	 101
  84	 102
  84	 103
  84	 105
  84	 106
  84	 108
  84	 110
  84	 111
  84	 113
  84	 115
  84	 116
  84	 117
  84	 119
  85	  87
  85	  88
  85	  89
  85	  91
  85	  92
  85	  94
  85	  95
  85	  99
  85	 100
  85	 101
  85	 104
  85	 105
  85	 107
  85	 108
  85	 111
  85	 114
  85	 116
  85	 117
  85	 118
  85	 119
  86	  88
  86	  91
  86	  92
  86	  93
  86	  95
  86	  99
  86	 100
  86	 101
  86	 103
  86	 108
  86	 109
  86	 113
  86	 114
  86	 115
  86	 116
  86	 117
  86	 119
  87	  88
  87	  89
  87	  90
  87	  92
  87	  93
  87	  94
  87	  96
  87	  97
  87	  99
  87	 102
  87	 104
  87	 106
  87	 107
  87	 108
  87	 111
  87	 112
  87	 113
  87	 115
  87	 117
  88	  89
  88	  91
  88	  93
  88	  95
  88	  99
  88	 100
  88	 106
  88	 111
  88	 114
  88	 115
  88	 117
  89	  90
  89	  92
  89	  94
  89	  95
  89	  98
  89	  99
  89	 100
  89	 105
  89	 110
  89	 113
  89	 115
  89	 116
  89	 119
  90	  94
  90	  95
  90	  97
  90	 100
  90	 104
  90	 105
  90	 106
  90	 107
  90	 108
  90	 109
  90	 110
  90	 112
  90	 114
  90	 115
  90	 116
  90	 119
  91	  92
  91	  93
  91	  94
  91	  95
  91	  97
  91	  98
  91	  99
  91	 100
  91	 101
  91	 102
  91	 103
  91	 104
  91	 105
  91	 106
  91	 108
  91	 109
  91	 110
  91	 111
  91	 112
  91	 114
  91	 117
  91	 118
  91	 119
  92	  94
  92	  98
  92	  99
  92	 101
  92	 103
  92	 104
  92	 105
  92	 106
  92	 107
  92	 109
  92	 111
  92	 112
  92	 114
  92	 115
  92	 117
  92	 119
  93	  96
  93	  98
  93	 100
  93	 102
  93	 103
  93	 104
  93	 105
  93	 107
  93	 109
  93	 110
  93	 112
  93	 113
  93	 115
  93	 117
  93	 118
  93	 119
  94	  95
  94	  96
  94	  98
  94	  99
  94	 101
  94	 104
  94	 105
  94	 107
  94	 108
  94	 112
  94	 114
  94	 115
  94	 117
  94	 118
  94	 119
  95	 100
  95	 104
  95	 106
  95	 108
  95	 109
  95	 110
  95	 111
  95	 116
  95	 117
  95	 119
  96	  99
  96	 102
  96	 104
  96	 109
  96	 111
  96	 113
  96	 114
  96	 116
  97	 100
  97	 101
  97	 103
  97	 104
  97	 106
  97	 108
  97	 111
  97	 112
  97	 115
  97	 117
  97	 118
  98	 100
  98	 103
  98	 104
  98	 106
  98	 108
  98	 109
  98	 110
  98	 111
  98	 112
  98	 113
  98	 118
  98	 119
  99	 101
  99	 103
  99	 104
  99	 107
  99	 110
  99	 111
  99	 112
  99	 113
  99	 114
  99	 115
  99	 116
  99	 119
 100	 103
 100	 105
 100	 106
 100	 108
 100	 109
 100	 111
 100	 115
 100	 117
 100	 118
 100	 119
 101	 104
 101	 105
 101	 107
 101	 108
 101	 109
 101	 110
 101	 111
 101	 113
 101	 114
 101	 117
 101	 118
 102	 103
 102	 104
 102	 105
 102	 108
 102	 110
 102	 112
 102	 113
 102	 117
 102	 119
 103	 106
 103	 108
 103	 109
 103	 111
 103	 114
 103	 115
 103	 117
 103	 118
 103	 119
 104	 109
 104	 111
 104	 112
 104	 113
 104	 116
 104	 119
 105	 106
 105	 107
 105	 109
 105	 111
 105	 112
 105	 115
 105	 118
 105	 119
 106	 107
 106	 108
 106	 109
 106	 110
 106	 111
 106	 116
 106	 117
 106	 118
 107	 109
 107	 111
 107	 113
 107	 116
 107	 117
 108	 109
 108	 115
 108	 116
 108	 118
 109	 112
 109	 113
 109	 114
 109	 116
 109	 117
 109	 118
 110	 111
 110	 113
 111	 114
 111	 119
 112	 113
 112	 116
 112	 117
 112	 118
 112	 119
 113	 114
 113	 115
 113	 116
 113	 118
 113	 119
 114	 115
 114	 116
 114	 118
 114	 119
 115	 116
 115	 118
 115	 119
 116	 117
 116	 118
 116	 119
 117	 118
;
